p edge 75 1665
e 1 4
e 1 6
e 1 7
e 1 12
e 1 13
e 1 14
e 1 15
e 1 16
e 1 17
e 1 18
e 1 19
e 1 20
e 1 21
e 1 22
e 1 24
e 1 26
e 1 29
e 1 32
e 1 33
e 1 34
e 1 35
e 1 36
e 1 37
e 1 38
e 1 41
e 1 42
e 1 43
e 1 45
e 1 49
e 1 52
e 1 53
e 1 55
e 1 56
e 1 57
e 1 59
e 1 60
e 1 63
e 1 65
e 1 66
e 1 67
e 1 68
e 1 70
e 1 71
e 1 73
e 1 74
e 1 75
e 2 4
e 2 5
e 2 6
e 2 7
e 2 8
e 2 9
e 2 10
e 2 11
e 2 12
e 2 13
e 2 15
e 2 18
e 2 19
e 2 20
e 2 21
e 2 24
e 2 26
e 2 27
e 2 28
e 2 29
e 2 30
e 2 31
e 2 32
e 2 34
e 2 36
e 2 38
e 2 44
e 2 45
e 2 46
e 2 50
e 2 52
e 2 54
e 2 55
e 2 56
e 2 58
e 2 59
e 2 60
e 2 61
e 2 62
e 2 63
e 2 64
e 2 65
e 2 66
e 2 69
e 2 70
e 2 71
e 2 73
e 2 74
e 3 4
e 3 5
e 3 12
e 3 14
e 3 15
e 3 16
e 3 18
e 3 19
e 3 20
e 3 24
e 3 27
e 3 30
e 3 31
e 3 32
e 3 33
e 3 35
e 3 36
e 3 38
e 3 39
e 3 40
e 3 42
e 3 43
e 3 46
e 3 47
e 3 48
e 3 49
e 3 51
e 3 52
e 3 54
e 3 56
e 3 57
e 3 58
e 3 59
e 3 60
e 3 62
e 3 63
e 3 64
e 3 65
e 3 66
e 3 68
e 3 70
e 3 72
e 3 73
e 3 75
e 4 7
e 4 8
e 4 9
e 4 10
e 4 11
e 4 12
e 4 13
e 4 14
e 4 15
e 4 16
e 4 17
e 4 19
e 4 20
e 4 22
e 4 25
e 4 27
e 4 29
e 4 31
e 4 32
e 4 33
e 4 34
e 4 35
e 4 36
e 4 38
e 4 41
e 4 42
e 4 43
e 4 44
e 4 45
e 4 47
e 4 51
e 4 52
e 4 53
e 4 57
e 4 61
e 4 62
e 4 63
e 4 66
e 4 67
e 4 68
e 4 72
e 4 74
e 4 75
e 5 6
e 5 7
e 5 10
e 5 11
e 5 12
e 5 13
e 5 14
e 5 17
e 5 18
e 5 19
e 5 21
e 5 23
e 5 24
e 5 25
e 5 27
e 5 28
e 5 29
e 5 30
e 5 31
e 5 32
e 5 33
e 5 36
e 5 38
e 5 39
e 5 40
e 5 41
e 5 43
e 5 44
e 5 49
e 5 50
e 5 51
e 5 52
e 5 54
e 5 55
e 5 56
e 5 59
e 5 60
e 5 61
e 5 65
e 5 67
e 5 68
e 5 71
e 5 72
e 5 75
e 6 7
e 6 12
e 6 13
e 6 19
e 6 20
e 6 22
e 6 24
e 6 25
e 6 30
e 6 34
e 6 35
e 6 36
e 6 37
e 6 38
e 6 39
e 6 40
e 6 41
e 6 43
e 6 44
e 6 46
e 6 48
e 6 49
e 6 50
e 6 51
e 6 53
e 6 55
e 6 56
e 6 57
e 6 60
e 6 63
e 6 64
e 6 65
e 6 67
e 6 68
e 6 69
e 6 70
e 6 74
e 7 9
e 7 11
e 7 12
e 7 13
e 7 16
e 7 17
e 7 18
e 7 19
e 7 20
e 7 21
e 7 22
e 7 24
e 7 25
e 7 26
e 7 29
e 7 30
e 7 31
e 7 32
e 7 33
e 7 35
e 7 36
e 7 37
e 7 38
e 7 39
e 7 42
e 7 44
e 7 46
e 7 47
e 7 48
e 7 49
e 7 50
e 7 51
e 7 52
e 7 54
e 7 56
e 7 58
e 7 62
e 7 63
e 7 64
e 7 65
e 7 66
e 7 69
e 7 70
e 7 73
e 8 10
e 8 11
e 8 12
e 8 17
e 8 19
e 8 20
e 8 21
e 8 23
e 8 24
e 8 27
e 8 28
e 8 29
e 8 30
e 8 32
e 8 34
e 8 40
e 8 41
e 8 42
e 8 44
e 8 45
e 8 47
e 8 49
e 8 50
e 8 53
e 8 54
e 8 56
e 8 58
e 8 59
e 8 60
e 8 61
e 8 64
e 8 66
e 8 68
e 8 69
e 8 70
e 8 71
e 8 74
e 9 10
e 9 12
e 9 13
e 9 18
e 9 20
e 9 25
e 9 27
e 9 28
e 9 30
e 9 31
e 9 32
e 9 33
e 9 37
e 9 38
e 9 39
e 9 41
e 9 42
e 9 43
e 9 44
e 9 45
e 9 47
e 9 50
e 9 51
e 9 52
e 9 53
e 9 55
e 9 57
e 9 58
e 9 59
e 9 60
e 9 61
e 9 65
e 9 69
e 9 70
e 9 71
e 9 72
e 9 73
e 10 12
e 10 13
e 10 16
e 10 18
e 10 20
e 10 21
e 10 22
e 10 23
e 10 24
e 10 25
e 10 26
e 10 28
e 10 29
e 10 30
e 10 31
e 10 32
e 10 33
e 10 34
e 10 35
e 10 36
e 10 39
e 10 40
e 10 41
e 10 42
e 10 44
e 10 45
e 10 46
e 10 47
e 10 49
e 10 51
e 10 52
e 10 53
e 10 54
e 10 55
e 10 56
e 10 57
e 10 58
e 10 59
e 10 61
e 10 63
e 10 65
e 10 66
e 10 68
e 10 69
e 10 71
e 10 73
e 10 74
e 10 75
e 11 14
e 11 15
e 11 16
e 11 17
e 11 19
e 11 21
e 11 22
e 11 23
e 11 24
e 11 25
e 11 26
e 11 28
e 11 31
e 11 32
e 11 33
e 11 35
e 11 36
e 11 37
e 11 38
e 11 39
e 11 43
e 11 45
e 11 50
e 11 51
e 11 52
e 11 54
e 11 55
e 11 57
e 11 58
e 11 60
e 11 63
e 11 66
e 11 69
e 11 70
e 11 73
e 11 74
e 11 75
e 12 14
e 12 18
e 12 22
e 12 25
e 12 26
e 12 27
e 12 29
e 12 30
e 12 31
e 12 34
e 12 35
e 12 36
e 12 37
e 12 38
e 12 39
e 12 41
e 12 43
e 12 44
e 12 55
e 12 56
e 12 57
e 12 61
e 12 62
e 12 63
e 12 65
e 12 66
e 12 69
e 12 70
e 12 71
e 12 72
e 12 73
e 12 74
e 13 14
e 13 15
e 13 20
e 13 23
e 13 24
e 13 29
e 13 32
e 13 33
e 13 35
e 13 39
e 13 41
e 13 43
e 13 44
e 13 45
e 13 47
e 13 49
e 13 50
e 13 51
e 13 52
e 13 53
e 13 55
e 13 57
e 13 60
e 13 61
e 13 63
e 13 64
e 13 65
e 13 67
e 13 68
e 13 69
e 13 71
e 13 72
e 13 73
e 13 75
e 14 15
e 14 18
e 14 22
e 14 23
e 14 24
e 14 26
e 14 27
e 14 28
e 14 30
e 14 32
e 14 33
e 14 34
e 14 39
e 14 40
e 14 43
e 14 44
e 14 46
e 14 47
e 14 50
e 14 51
e 14 52
e 14 54
e 14 56
e 14 57
e 14 59
e 14 60
e 14 63
e 14 64
e 14 65
e 14 66
e 14 67
e 14 71
e 14 72
e 14 73
e 14 74
e 15 16
e 15 17
e 15 18
e 15 19
e 15 24
e 15 25
e 15 27
e 15 30
e 15 32
e 15 33
e 15 35
e 15 37
e 15 38
e 15 40
e 15 41
e 15 42
e 15 44
e 15 46
e 15 47
e 15 48
e 15 51
e 15 52
e 15 53
e 15 54
e 15 56
e 15 59
e 15 60
e 15 61
e 15 62
e 15 64
e 15 65
e 15 66
e 15 67
e 15 69
e 15 70
e 15 72
e 15 73
e 16 18
e 16 20
e 16 21
e 16 22
e 16 25
e 16 26
e 16 27
e 16 29
e 16 30
e 16 31
e 16 37
e 16 38
e 16 39
e 16 40
e 16 42
e 16 43
e 16 48
e 16 50
e 16 52
e 16 53
e 16 54
e 16 55
e 16 56
e 16 58
e 16 59
e 16 63
e 16 64
e 16 65
e 16 66
e 16 71
e 16 73
e 16 74
e 16 75
e 17 21
e 17 22
e 17 24
e 17 25
e 17 27
e 17 28
e 17 30
e 17 31
e 17 32
e 17 33
e 17 34
e 17 35
e 17 36
e 17 37
e 17 38
e 17 39
e 17 43
e 17 45
e 17 46
e 17 47
e 17 48
e 17 49
e 17 50
e 17 55
e 17 57
e 17 59
e 17 60
e 17 61
e 17 63
e 17 64
e 17 65
e 17 67
e 17 68
e 17 69
e 17 70
e 17 73
e 17 74
e 17 75
e 18 20
e 18 23
e 18 25
e 18 26
e 18 27
e 18 28
e 18 29
e 18 32
e 18 33
e 18 35
e 18 39
e 18 41
e 18 43
e 18 44
e 18 50
e 18 51
e 18 52
e 18 55
e 18 57
e 18 59
e 18 60
e 18 61
e 18 62
e 18 63
e 18 64
e 18 68
e 18 71
e 18 74
e 19 20
e 19 23
e 19 24
e 19 27
e 19 29
e 19 32
e 19 34
e 19 35
e 19 42
e 19 43
e 19 45
e 19 46
e 19 50
e 19 51
e 19 53
e 19 54
e 19 55
e 19 57
e 19 59
e 19 60
e 19 66
e 19 67
e 19 68
e 19 70
e 19 72
e 19 74
e 20 22
e 20 23
e 20 24
e 20 26
e 20 29
e 20 36
e 20 37
e 20 39
e 20 40
e 20 41
e 20 42
e 20 43
e 20 45
e 20 48
e 20 49
e 20 51
e 20 52
e 20 53
e 20 54
e 20 55
e 20 57
e 20 58
e 20 59
e 20 60
e 20 63
e 20 64
e 20 65
e 20 66
e 20 67
e 20 69
e 20 70
e 20 71
e 20 72
e 20 73
e 20 74
e 20 75
e 21 22
e 21 26
e 21 28
e 21 33
e 21 34
e 21 35
e 21 36
e 21 37
e 21 39
e 21 40
e 21 43
e 21 44
e 21 45
e 21 47
e 21 50
e 21 53
e 21 54
e 21 57
e 21 59
e 21 60
e 21 64
e 21 66
e 21 67
e 21 68
e 21 70
e 21 72
e 21 74
e 21 75
e 22 23
e 22 25
e 22 28
e 22 29
e 22 31
e 22 32
e 22 33
e 22 35
e 22 37
e 22 39
e 22 40
e 22 42
e 22 43
e 22 46
e 22 47
e 22 48
e 22 49
e 22 50
e 22 51
e 22 52
e 22 53
e 22 54
e 22 56
e 22 57
e 22 58
e 22 59
e 22 60
e 22 62
e 22 63
e 22 64
e 22 65
e 22 66
e 22 67
e 22 69
e 22 70
e 22 71
e 22 72
e 22 73
e 22 74
e 22 75
e 23 24
e 23 25
e 23 27
e 23 28
e 23 29
e 23 30
e 23 31
e 23 32
e 23 37
e 23 38
e 23 40
e 23 43
e 23 45
e 23 47
e 23 48
e 23 49
e 23 50
e 23 51
e 23 52
e 23 53
e 23 55
e 23 56
e 23 59
e 23 60
e 23 63
e 23 64
e 23 66
e 23 68
e 23 69
e 23 70
e 23 73
e 23 74
e 23 75
e 24 26
e 24 27
e 24 29
e 24 30
e 24 31
e 24 33
e 24 34
e 24 35
e 24 37
e 24 38
e 24 39
e 24 44
e 24 45
e 24 47
e 24 48
e 24 49
e 24 50
e 24 51
e 24 52
e 24 55
e 24 57
e 24 59
e 24 60
e 24 61
e 24 62
e 24 63
e 24 65
e 24 67
e 24 70
e 24 71
e 24 72
e 24 73
e 24 74
e 25 26
e 25 28
e 25 29
e 25 30
e 25 31
e 25 33
e 25 34
e 25 35
e 25 42
e 25 44
e 25 46
e 25 48
e 25 50
e 25 55
e 25 56
e 25 58
e 25 59
e 25 65
e 25 67
e 25 69
e 25 70
e 25 74
e 25 75
e 26 29
e 26 30
e 26 32
e 26 34
e 26 35
e 26 36
e 26 40
e 26 41
e 26 42
e 26 44
e 26 45
e 26 52
e 26 54
e 26 55
e 26 57
e 26 58
e 26 59
e 26 62
e 26 63
e 26 65
e 26 69
e 26 70
e 26 71
e 26 73
e 26 74
e 27 31
e 27 32
e 27 36
e 27 37
e 27 39
e 27 40
e 27 43
e 27 44
e 27 45
e 27 46
e 27 47
e 27 48
e 27 49
e 27 50
e 27 51
e 27 52
e 27 55
e 27 57
e 27 61
e 27 62
e 27 63
e 27 67
e 27 69
e 27 70
e 27 72
e 27 73
e 27 75
e 28 29
e 28 30
e 28 32
e 28 34
e 28 36
e 28 38
e 28 39
e 28 41
e 28 44
e 28 45
e 28 46
e 28 47
e 28 48
e 28 51
e 28 52
e 28 54
e 28 57
e 28 60
e 28 61
e 28 63
e 28 68
e 28 70
e 28 72
e 28 73
e 28 74
e 29 30
e 29 32
e 29 33
e 29 36
e 29 37
e 29 38
e 29 39
e 29 40
e 29 42
e 29 43
e 29 47
e 29 48
e 29 50
e 29 51
e 29 55
e 29 60
e 29 61
e 29 62
e 29 64
e 29 65
e 29 66
e 29 67
e 29 69
e 29 72
e 29 74
e 30 31
e 30 34
e 30 37
e 30 39
e 30 44
e 30 45
e 30 46
e 30 48
e 30 49
e 30 50
e 30 52
e 30 53
e 30 55
e 30 56
e 30 57
e 30 59
e 30 60
e 30 63
e 30 65
e 30 67
e 30 68
e 30 69
e 30 70
e 30 71
e 30 72
e 30 74
e 30 75
e 31 32
e 31 33
e 31 35
e 31 36
e 31 40
e 31 41
e 31 43
e 31 44
e 31 45
e 31 48
e 31 49
e 31 50
e 31 52
e 31 53
e 31 55
e 31 56
e 31 58
e 31 59
e 31 60
e 31 61
e 31 63
e 31 65
e 31 71
e 31 72
e 31 75
e 32 33
e 32 35
e 32 36
e 32 38
e 32 39
e 32 40
e 32 41
e 32 42
e 32 44
e 32 45
e 32 46
e 32 50
e 32 51
e 32 52
e 32 53
e 32 55
e 32 56
e 32 57
e 32 58
e 32 59
e 32 60
e 32 61
e 32 62
e 32 63
e 32 66
e 32 68
e 32 70
e 32 74
e 33 34
e 33 36
e 33 38
e 33 40
e 33 41
e 33 46
e 33 47
e 33 48
e 33 49
e 33 51
e 33 53
e 33 54
e 33 56
e 33 59
e 33 60
e 33 61
e 33 62
e 33 64
e 33 65
e 33 66
e 33 69
e 33 70
e 33 71
e 33 73
e 33 74
e 34 35
e 34 36
e 34 38
e 34 41
e 34 43
e 34 44
e 34 45
e 34 46
e 34 47
e 34 49
e 34 51
e 34 56
e 34 59
e 34 60
e 34 61
e 34 62
e 34 63
e 34 66
e 34 67
e 34 68
e 34 69
e 34 70
e 34 74
e 34 75
e 35 36
e 35 37
e 35 40
e 35 41
e 35 44
e 35 45
e 35 47
e 35 48
e 35 50
e 35 53
e 35 54
e 35 55
e 35 60
e 35 62
e 35 64
e 35 65
e 35 66
e 35 67
e 35 69
e 35 70
e 35 71
e 35 74
e 36 37
e 36 38
e 36 39
e 36 40
e 36 41
e 36 44
e 36 45
e 36 46
e 36 47
e 36 49
e 36 55
e 36 56
e 36 57
e 36 58
e 36 59
e 36 60
e 36 61
e 36 64
e 36 65
e 36 68
e 36 69
e 36 71
e 36 73
e 36 74
e 36 75
e 37 38
e 37 40
e 37 41
e 37 44
e 37 45
e 37 46
e 37 49
e 37 50
e 37 53
e 37 54
e 37 55
e 37 56
e 37 57
e 37 58
e 37 60
e 37 61
e 37 62
e 37 63
e 37 66
e 37 67
e 37 68
e 37 70
e 37 71
e 37 72
e 37 73
e 37 74
e 38 40
e 38 42
e 38 43
e 38 45
e 38 47
e 38 48
e 38 53
e 38 57
e 38 59
e 38 61
e 38 62
e 38 63
e 38 67
e 38 69
e 38 70
e 38 71
e 38 72
e 38 73
e 38 74
e 39 41
e 39 47
e 39 49
e 39 51
e 39 52
e 39 53
e 39 54
e 39 55
e 39 57
e 39 58
e 39 59
e 39 60
e 39 62
e 39 63
e 39 64
e 39 66
e 39 67
e 39 69
e 39 71
e 39 72
e 39 73
e 39 75
e 40 41
e 40 42
e 40 45
e 40 46
e 40 47
e 40 49
e 40 53
e 40 55
e 40 56
e 40 57
e 40 60
e 40 61
e 40 62
e 40 63
e 40 64
e 40 67
e 40 68
e 40 70
e 41 44
e 41 46
e 41 48
e 41 50
e 41 51
e 41 53
e 41 54
e 41 55
e 41 57
e 41 58
e 41 59
e 41 61
e 41 62
e 41 63
e 41 66
e 41 67
e 41 68
e 41 70
e 41 72
e 41 74
e 41 75
e 42 44
e 42 46
e 42 48
e 42 49
e 42 50
e 42 51
e 42 52
e 42 53
e 42 54
e 42 55
e 42 56
e 42 57
e 42 59
e 42 60
e 42 61
e 42 62
e 42 63
e 42 66
e 42 67
e 42 68
e 42 69
e 42 70
e 42 71
e 42 72
e 42 75
e 43 44
e 43 46
e 43 49
e 43 50
e 43 53
e 43 54
e 43 55
e 43 59
e 43 60
e 43 61
e 43 63
e 43 65
e 43 69
e 43 70
e 43 71
e 43 72
e 43 75
e 44 46
e 44 47
e 44 48
e 44 49
e 44 53
e 44 54
e 44 55
e 44 57
e 44 58
e 44 59
e 44 60
e 44 63
e 44 64
e 44 67
e 44 68
e 44 69
e 44 70
e 44 71
e 44 72
e 44 74
e 44 75
e 45 47
e 45 48
e 45 50
e 45 51
e 45 56
e 45 58
e 45 60
e 45 61
e 45 62
e 45 64
e 45 65
e 45 66
e 45 67
e 45 69
e 45 70
e 45 72
e 45 73
e 45 75
e 46 47
e 46 48
e 46 49
e 46 50
e 46 51
e 46 52
e 46 53
e 46 55
e 46 58
e 46 59
e 46 60
e 46 61
e 46 62
e 46 64
e 46 65
e 46 66
e 46 68
e 46 70
e 46 71
e 46 72
e 46 73
e 46 74
e 47 48
e 47 49
e 47 50
e 47 51
e 47 52
e 47 53
e 47 54
e 47 55
e 47 56
e 47 57
e 47 58
e 47 59
e 47 61
e 47 62
e 47 63
e 47 65
e 47 66
e 47 69
e 47 70
e 47 71
e 47 73
e 47 74
e 47 75
e 48 49
e 48 51
e 48 52
e 48 54
e 48 55
e 48 57
e 48 60
e 48 61
e 48 63
e 48 64
e 48 65
e 48 67
e 48 68
e 48 70
e 48 71
e 48 72
e 48 73
e 48 74
e 48 75
e 49 50
e 49 51
e 49 52
e 49 55
e 49 56
e 49 57
e 49 60
e 49 63
e 49 64
e 49 65
e 49 66
e 49 68
e 49 69
e 49 70
e 49 71
e 49 75
e 50 52
e 50 53
e 50 54
e 50 55
e 50 56
e 50 57
e 50 59
e 50 60
e 50 62
e 50 64
e 50 65
e 50 66
e 50 67
e 50 68
e 50 69
e 50 71
e 50 73
e 50 75
e 51 53
e 51 54
e 51 55
e 51 61
e 51 62
e 51 63
e 51 64
e 51 65
e 51 66
e 51 67
e 51 68
e 51 70
e 51 73
e 51 74
e 51 75
e 52 53
e 52 54
e 52 55
e 52 56
e 52 59
e 52 60
e 52 61
e 52 65
e 52 66
e 52 67
e 52 71
e 52 75
e 53 55
e 53 57
e 53 59
e 53 61
e 53 62
e 53 63
e 53 65
e 53 66
e 53 67
e 53 69
e 53 70
e 53 71
e 53 72
e 53 73
e 53 74
e 53 75
e 54 55
e 54 56
e 54 58
e 54 60
e 54 61
e 54 62
e 54 64
e 54 65
e 54 66
e 54 68
e 54 70
e 54 71
e 54 72
e 55 57
e 55 58
e 55 59
e 55 65
e 55 66
e 55 67
e 55 68
e 55 69
e 55 73
e 55 74
e 56 57
e 56 60
e 56 61
e 56 64
e 56 65
e 56 66
e 56 67
e 56 68
e 56 69
e 56 70
e 56 71
e 56 72
e 56 75
e 57 59
e 57 60
e 57 61
e 57 63
e 57 64
e 57 65
e 57 68
e 57 70
e 57 71
e 57 73
e 58 59
e 58 60
e 58 61
e 58 63
e 58 64
e 58 65
e 58 69
e 58 70
e 58 71
e 58 72
e 58 74
e 58 75
e 59 60
e 59 61
e 59 62
e 59 63
e 59 64
e 59 66
e 59 67
e 59 68
e 59 69
e 59 70
e 59 71
e 59 72
e 59 75
e 60 61
e 60 62
e 60 63
e 60 65
e 60 67
e 60 70
e 60 71
e 60 74
e 61 62
e 61 65
e 61 66
e 61 67
e 61 68
e 61 71
e 61 72
e 61 73
e 62 63
e 62 64
e 62 66
e 62 67
e 62 68
e 62 69
e 62 72
e 62 73
e 62 74
e 62 75
e 63 67
e 63 70
e 63 71
e 63 72
e 63 73
e 63 74
e 64 66
e 64 67
e 64 68
e 64 69
e 64 73
e 64 75
e 65 67
e 65 70
e 65 71
e 65 75
e 66 67
e 66 68
e 66 70
e 66 74
e 66 75
e 67 71
e 67 74
e 67 75
e 68 69
e 68 71
e 68 72
e 68 73
e 69 70
e 69 72
e 69 75
e 70 71
e 70 72
e 70 74
e 70 75
e 71 72
e 71 73
e 71 75
e 72 73
e 72 75
e 74 75
